
Gurobi 9.5.2 (mac64[arm]) logging started Sun Apr  2 20:48:20 2023

Set parameter LogFile to value "./ccga_results/2023-04-02 20-48-19-173/MSP_TimeStampConvert_gurobi_log.txt"

Gurobi 9.5.2 (mac64[arm]) logging started Sun Apr  2 20:48:20 2023

Set parameter LogFile to value "./ccga_results/2023-04-02 20-48-19-173/MSP_TimeStampConvert_gurobi_log.txt"
Set parameter TimeLimit to value 180
Gurobi Optimizer version 9.5.2 build v9.5.2rc0 (mac64[arm])
Thread count: 8 physical cores, 8 logical processors, using up to 8 threads
Optimize a model with 100 rows, 77 columns and 242 nonzeros
Model fingerprint: 0xd266c645
Variable types: 5 continuous, 72 integer (72 binary)
Coefficient statistics:
  Matrix range     [1e+00, 1e+00]
  Objective range  [1e+00, 1e+00]
  Bounds range     [5e+02, 5e+02]
  RHS range        [1e+00, 1e+00]
Found heuristic solution: objective 2000.0000000

Explored 0 nodes (0 simplex iterations) in 0.00 seconds (0.00 work units)
Thread count was 1 (of 8 available processors)

Solution count 1: 2000 

Optimal solution found (tolerance 5.00e-02)
Best objective 2.000000000000e+03, best bound 2.000000000000e+03, gap 0.0000%

User-callback calls 21, time in user-callback 0.00 sec
Gurobi Optimizer version 9.5.2 build v9.5.2rc0 (mac64[arm])
Thread count: 8 physical cores, 8 logical processors, using up to 8 threads
Optimize a model with 353 rows, 161 columns and 1019 nonzeros
Model fingerprint: 0xafde1ec5
Variable types: 81 continuous, 80 integer (80 binary)
Coefficient statistics:
  Matrix range     [3e-01, 8e+02]
  Objective range  [1e+00, 1e+00]
  Bounds range     [5e+02, 5e+02]
  RHS range        [1e+00, 1e+08]

MIP start from previous solve did not produce a new incumbent solution

Presolve removed 95 rows and 42 columns
Presolve time: 0.00s
Presolved: 258 rows, 119 columns, 830 nonzeros
Variable types: 59 continuous, 60 integer (60 binary)
Found heuristic solution: objective 1934.2688582

Explored 0 nodes (0 simplex iterations) in 0.00 seconds (0.00 work units)
Thread count was 8 (of 8 available processors)

Solution count 1: 1934.27 

Optimal solution found (tolerance 5.00e-02)
Best objective 1.934268858223e+03, best bound 2.000000000000e+03, gap 3.3982%

User-callback calls 378, time in user-callback 0.00 sec
Gurobi Optimizer version 9.5.2 build v9.5.2rc0 (mac64[arm])
Thread count: 8 physical cores, 8 logical processors, using up to 8 threads
Optimize a model with 606 rows, 245 columns and 1796 nonzeros
Model fingerprint: 0xe8d3c89d
Variable types: 157 continuous, 88 integer (88 binary)
Coefficient statistics:
  Matrix range     [3e-01, 8e+02]
  Objective range  [1e+00, 1e+00]
  Bounds range     [5e+02, 5e+02]
  RHS range        [1e+00, 1e+08]

MIP start from previous solve produced solution with objective 1870.86 (0.00s)
Loaded MIP start from previous solve with objective 1870.86

Presolve removed 162 rows and 71 columns
Presolve time: 0.01s
Presolved: 444 rows, 174 columns, 1480 nonzeros
Variable types: 114 continuous, 60 integer (60 binary)

Root relaxation: objective 2.000000e+03, 83 iterations, 0.00 seconds (0.00 work units)

    Nodes    |    Current Node    |     Objective Bounds      |     Work
 Expl Unexpl |  Obj  Depth IntInf | Incumbent    BestBd   Gap | It/Node Time

     0     0 2000.00000    0    2 1870.86162 2000.00000  6.90%     -    0s
H    0     0                    2000.0000000 2000.00000  0.00%     -    0s
     0     0 2000.00000    0    2 2000.00000 2000.00000  0.00%     -    0s

Explored 1 nodes (83 simplex iterations) in 0.01 seconds (0.01 work units)
Thread count was 8 (of 8 available processors)

Solution count 2: 2000 1870.86 

Optimal solution found (tolerance 5.00e-02)
Best objective 2.000000000000e+03, best bound 2.000000000000e+03, gap 0.0000%

User-callback calls 394, time in user-callback 0.00 sec
Gurobi Optimizer version 9.5.2 build v9.5.2rc0 (mac64[arm])
Thread count: 8 physical cores, 8 logical processors, using up to 8 threads
Optimize a model with 859 rows, 329 columns and 2573 nonzeros
Model fingerprint: 0xeb90c247
Variable types: 233 continuous, 96 integer (96 binary)
Coefficient statistics:
  Matrix range     [3e-01, 8e+02]
  Objective range  [1e+00, 1e+00]
  Bounds range     [5e+02, 5e+02]
  RHS range        [1e+00, 1e+08]

MIP start from previous solve produced solution with objective 1482.04 (0.00s)
Loaded MIP start from previous solve with objective 1482.04

Presolve removed 229 rows and 100 columns
Presolve time: 0.01s
Presolved: 630 rows, 229 columns, 2130 nonzeros
Variable types: 169 continuous, 60 integer (60 binary)

Root relaxation: objective 2.000000e+03, 86 iterations, 0.00 seconds (0.00 work units)

    Nodes    |    Current Node    |     Objective Bounds      |     Work
 Expl Unexpl |  Obj  Depth IntInf | Incumbent    BestBd   Gap | It/Node Time

     0     0 2000.00000    0    6 1482.04321 2000.00000  34.9%     -    0s
H    0     0                    1994.8476178 2000.00000  0.26%     -    0s

Explored 1 nodes (86 simplex iterations) in 0.03 seconds (0.01 work units)
Thread count was 8 (of 8 available processors)

Solution count 2: 1994.85 1482.04 

Optimal solution found (tolerance 5.00e-02)
Best objective 1.994847617799e+03, best bound 2.000000000000e+03, gap 0.2583%

User-callback calls 397, time in user-callback 0.00 sec
Gurobi Optimizer version 9.5.2 build v9.5.2rc0 (mac64[arm])
Thread count: 8 physical cores, 8 logical processors, using up to 8 threads
Optimize a model with 1112 rows, 413 columns and 3350 nonzeros
Model fingerprint: 0x5509812f
Variable types: 309 continuous, 104 integer (104 binary)
Coefficient statistics:
  Matrix range     [3e-01, 8e+02]
  Objective range  [1e+00, 1e+00]
  Bounds range     [5e+02, 5e+02]
  RHS range        [1e+00, 1e+08]

MIP start from previous solve did not produce a new incumbent solution

Presolve removed 296 rows and 129 columns
Presolve time: 0.01s
Presolved: 816 rows, 284 columns, 2780 nonzeros
Variable types: 224 continuous, 60 integer (60 binary)
Found heuristic solution: objective 626.4120863

Root relaxation: objective 1.824497e+03, 313 iterations, 0.00 seconds (0.00 work units)

    Nodes    |    Current Node    |     Objective Bounds      |     Work
 Expl Unexpl |  Obj  Depth IntInf | Incumbent    BestBd   Gap | It/Node Time

     0     0 1824.49727    0    9  626.41209 1824.49727   191%     -    0s
H    0     0                    1682.0432073 1824.49727  8.47%     -    0s
H    0     0                    1773.9945426 1824.49727  2.85%     -    0s

Cutting planes:
  Gomory: 4
  Cover: 2
  MIR: 8
  Flow cover: 13
  Relax-and-lift: 1

Explored 1 nodes (313 simplex iterations) in 0.05 seconds (0.02 work units)
Thread count was 8 (of 8 available processors)

Solution count 3: 1773.99 1682.04 626.412 

Optimal solution found (tolerance 5.00e-02)
Best objective 1.773994542629e+03, best bound 1.824497271315e+03, gap 2.8468%

User-callback calls 412, time in user-callback 0.00 sec
Gurobi Optimizer version 9.5.2 build v9.5.2rc0 (mac64[arm])
Thread count: 8 physical cores, 8 logical processors, using up to 8 threads
Optimize a model with 1365 rows, 497 columns and 4127 nonzeros
Model fingerprint: 0xa45c99ee
Variable types: 385 continuous, 112 integer (112 binary)
Coefficient statistics:
  Matrix range     [3e-01, 8e+02]
  Objective range  [1e+00, 1e+00]
  Bounds range     [5e+02, 5e+02]
  RHS range        [1e+00, 1e+08]

MIP start from previous solve did not produce a new incumbent solution

Presolve removed 363 rows and 158 columns
Presolve time: 0.01s
Presolved: 1002 rows, 339 columns, 3430 nonzeros
Variable types: 279 continuous, 60 integer (60 binary)
Found heuristic solution: objective 626.4120863

Root relaxation: objective 1.771635e+03, 339 iterations, 0.00 seconds (0.00 work units)

    Nodes    |    Current Node    |     Objective Bounds      |     Work
 Expl Unexpl |  Obj  Depth IntInf | Incumbent    BestBd   Gap | It/Node Time

     0     0 1771.63484    0   12  626.41209 1771.63484   183%     -    0s
H    0     0                    1662.8044105 1771.63484  6.54%     -    0s
H    0     0                    1668.8421604 1771.63484  6.16%     -    0s
H    0     0                    1718.8421604 1771.63484  3.07%     -    0s

Cutting planes:
  Gomory: 3
  Cover: 3
  MIR: 17
  Flow cover: 22
  RLT: 1
  Relax-and-lift: 3

Explored 1 nodes (393 simplex iterations) in 0.05 seconds (0.04 work units)
Thread count was 8 (of 8 available processors)

Solution count 4: 1718.84 1668.84 1662.8 626.412 

Optimal solution found (tolerance 5.00e-02)
Best objective 1.718842160428e+03, best bound 1.771634836758e+03, gap 3.0714%

User-callback calls 416, time in user-callback 0.00 sec
Gurobi Optimizer version 9.5.2 build v9.5.2rc0 (mac64[arm])
Thread count: 8 physical cores, 8 logical processors, using up to 8 threads
Optimize a model with 1618 rows, 581 columns and 4904 nonzeros
Model fingerprint: 0xc7dd2fad
Variable types: 461 continuous, 120 integer (120 binary)
Coefficient statistics:
  Matrix range     [3e-01, 8e+02]
  Objective range  [1e+00, 1e+00]
  Bounds range     [5e+02, 5e+02]
  RHS range        [1e+00, 1e+08]

MIP start from previous solve produced solution with objective 1361.27 (0.00s)
Loaded MIP start from previous solve with objective 1361.27

Presolve removed 430 rows and 187 columns
Presolve time: 0.02s
Presolved: 1188 rows, 394 columns, 4080 nonzeros
Variable types: 334 continuous, 60 integer (60 binary)

Root relaxation: objective 1.688206e+03, 482 iterations, 0.01 seconds (0.01 work units)

    Nodes    |    Current Node    |     Objective Bounds      |     Work
 Expl Unexpl |  Obj  Depth IntInf | Incumbent    BestBd   Gap | It/Node Time

     0     0 1688.20604    0   15 1361.27223 1688.20604  24.0%     -    0s
H    0     0                    1534.4607509 1688.20604  10.0%     -    0s
     0     0 1688.20604    0   28 1534.46075 1688.20604  10.0%     -    0s
H    0     0                    1626.4120863 1686.88658  3.72%     -    0s
     0     0 1686.88658    0   21 1626.41209 1686.88658  3.72%     -    0s

Cutting planes:
  MIR: 4
  Flow cover: 2

Explored 1 nodes (599 simplex iterations) in 0.07 seconds (0.06 work units)
Thread count was 8 (of 8 available processors)

Solution count 3: 1626.41 1534.46 1361.27 

Optimal solution found (tolerance 5.00e-02)
Best objective 1.626412086251e+03, best bound 1.686886581343e+03, gap 3.7183%

User-callback calls 426, time in user-callback 0.00 sec
